\ENCODING=ISO-8859-1
\Problem name: IloCplex

Minimize
 obj: 15000 X(1)(1)(1) + 15000 X(1)(1)(2) + 15000 X(1)(1)(3) + 15000 X(1)(1)(4)
      + 15000 X(1)(2)(1) + 15000 X(1)(2)(2) + 15000 X(1)(2)(3)
      + 15000 X(1)(2)(4) + 10800 X(2)(1)(1) + 10800 X(2)(1)(2)
      + 10800 X(2)(1)(3) + 10800 X(2)(1)(4) + 10800 X(2)(2)(1)
      + 10800 X(2)(2)(2) + 10800 X(2)(2)(3) + 10800 X(2)(2)(4)
      + 22800 X(3)(1)(1) + 22800 X(3)(1)(2) + 22800 X(3)(1)(3)
      + 22800 X(3)(1)(4) + 22800 X(3)(2)(1) + 22800 X(3)(2)(2)
      + 22800 X(3)(2)(3) + 22800 X(3)(2)(4) + 28800 X(4)(1)(1)
      + 28800 X(4)(1)(2) + 28800 X(4)(1)(3) + 28800 X(4)(1)(4)
      + 28800 X(4)(2)(1) + 28800 X(4)(2)(2) + 28800 X(4)(2)(3)
      + 28800 X(4)(2)(4) + 5000 Z(1)(1)(1) + 5000 Z(1)(1)(2) + 5000 Z(1)(1)(3)
      + 5000 Z(1)(1)(4) + 5000 Z(1)(2)(1) + 5000 Z(1)(2)(2) + 5000 Z(1)(2)(3)
      + 5000 Z(1)(2)(4) + 1600 Z(2)(1)(1) + 1600 Z(2)(1)(2) + 1600 Z(2)(1)(3)
      + 1600 Z(2)(1)(4) + 1600 Z(2)(2)(1) + 1600 Z(2)(2)(2) + 1600 Z(2)(2)(3)
      + 1600 Z(2)(2)(4) + 2500 Z(3)(1)(1) + 2500 Z(3)(1)(2) + 2500 Z(3)(1)(3)
      + 2500 Z(3)(1)(4) + 2500 Z(3)(2)(1) + 2500 Z(3)(2)(2) + 2500 Z(3)(2)(3)
      + 2500 Z(3)(2)(4) + 1200 Z(4)(1)(1) + 1200 Z(4)(1)(2) + 1200 Z(4)(1)(3)
      + 1200 Z(4)(1)(4) + 1200 Z(4)(2)(1) + 1200 Z(4)(2)(2) + 1200 Z(4)(2)(3)
      + 1200 Z(4)(2)(4) + 48 Q(1)(1)(1) + 48 Q(1)(1)(2) + 48 Q(1)(1)(3)
      + 48 Q(1)(1)(4) + 48 Q(1)(2)(1) + 48 Q(1)(2)(2) + 48 Q(1)(2)(3)
      + 48 Q(1)(2)(4) + 36 Q(2)(1)(1) + 36 Q(2)(1)(2) + 36 Q(2)(1)(3)
      + 36 Q(2)(1)(4) + 36 Q(2)(2)(1) + 36 Q(2)(2)(2) + 36 Q(2)(2)(3)
      + 36 Q(2)(2)(4) + 54 Q(3)(1)(1) + 54 Q(3)(1)(2) + 54 Q(3)(1)(3)
      + 54 Q(3)(1)(4) + 54 Q(3)(2)(1) + 54 Q(3)(2)(2) + 54 Q(3)(2)(3)
      + 54 Q(3)(2)(4) + 30 Q(4)(1)(1) + 30 Q(4)(1)(2) + 30 Q(4)(1)(3)
      + 30 Q(4)(1)(4) + 30 Q(4)(2)(1) + 30 Q(4)(2)(2) + 30 Q(4)(2)(3)
      + 30 Q(4)(2)(4)
Subject To
 ONOFF(1)(1)(1):  - 750 X(1)(1)(1) + P(1)(1)(1) >= 0
 ONOFF2(1)(1)(1): 2000 X(1)(1)(1) - P(1)(1)(1) >= 0
 ONOFF(1)(1)(2):  - 750 X(1)(1)(2) + P(1)(1)(2) >= 0
 ONOFF2(1)(1)(2): 2000 X(1)(1)(2) - P(1)(1)(2) >= 0
 ONOFF(1)(1)(3):  - 750 X(1)(1)(3) + P(1)(1)(3) >= 0
 ONOFF2(1)(1)(3): 2000 X(1)(1)(3) - P(1)(1)(3) >= 0
 ONOFF(1)(1)(4):  - 750 X(1)(1)(4) + P(1)(1)(4) >= 0
 ONOFF2(1)(1)(4): 2000 X(1)(1)(4) - P(1)(1)(4) >= 0
 ONOFF(1)(2)(1):  - 750 X(1)(2)(1) + P(1)(2)(1) >= 0
 ONOFF2(1)(2)(1): 2000 X(1)(2)(1) - P(1)(2)(1) >= 0
 ONOFF(1)(2)(2):  - 750 X(1)(2)(2) + P(1)(2)(2) >= 0
 ONOFF2(1)(2)(2): 2000 X(1)(2)(2) - P(1)(2)(2) >= 0
 ONOFF(1)(2)(3):  - 750 X(1)(2)(3) + P(1)(2)(3) >= 0
 ONOFF2(1)(2)(3): 2000 X(1)(2)(3) - P(1)(2)(3) >= 0
 ONOFF(1)(2)(4):  - 750 X(1)(2)(4) + P(1)(2)(4) >= 0
 ONOFF2(1)(2)(4): 2000 X(1)(2)(4) - P(1)(2)(4) >= 0
 ONOFF(2)(1)(1):  - 1000 X(2)(1)(1) + P(2)(1)(1) >= 0
 ONOFF2(2)(1)(1): 3500 X(2)(1)(1) - P(2)(1)(1) >= 0
 ONOFF(2)(1)(2):  - 1000 X(2)(1)(2) + P(2)(1)(2) >= 0
 ONOFF2(2)(1)(2): 3500 X(2)(1)(2) - P(2)(1)(2) >= 0
 ONOFF(2)(1)(3):  - 1000 X(2)(1)(3) + P(2)(1)(3) >= 0
 ONOFF2(2)(1)(3): 3500 X(2)(1)(3) - P(2)(1)(3) >= 0
 ONOFF(2)(1)(4):  - 1000 X(2)(1)(4) + P(2)(1)(4) >= 0
 ONOFF2(2)(1)(4): 3500 X(2)(1)(4) - P(2)(1)(4) >= 0
 ONOFF(2)(2)(1):  - 1000 X(2)(2)(1) + P(2)(2)(1) >= 0
 ONOFF2(2)(2)(1): 3500 X(2)(2)(1) - P(2)(2)(1) >= 0
 ONOFF(2)(2)(2):  - 1000 X(2)(2)(2) + P(2)(2)(2) >= 0
 ONOFF2(2)(2)(2): 3500 X(2)(2)(2) - P(2)(2)(2) >= 0
 ONOFF(2)(2)(3):  - 1000 X(2)(2)(3) + P(2)(2)(3) >= 0
 ONOFF2(2)(2)(3): 3500 X(2)(2)(3) - P(2)(2)(3) >= 0
 ONOFF(2)(2)(4):  - 1000 X(2)(2)(4) + P(2)(2)(4) >= 0
 ONOFF2(2)(2)(4): 3500 X(2)(2)(4) - P(2)(2)(4) >= 0
 ONOFF(3)(1)(1):  - 1200 X(3)(1)(1) + P(3)(1)(1) >= 0
 ONOFF2(3)(1)(1): 4000 X(3)(1)(1) - P(3)(1)(1) >= 0
 ONOFF(3)(1)(2):  - 1200 X(3)(1)(2) + P(3)(1)(2) >= 0
 ONOFF2(3)(1)(2): 4000 X(3)(1)(2) - P(3)(1)(2) >= 0
 ONOFF(3)(1)(3):  - 1200 X(3)(1)(3) + P(3)(1)(3) >= 0
 ONOFF2(3)(1)(3): 4000 X(3)(1)(3) - P(3)(1)(3) >= 0
 ONOFF(3)(1)(4):  - 1200 X(3)(1)(4) + P(3)(1)(4) >= 0
 ONOFF2(3)(1)(4): 4000 X(3)(1)(4) - P(3)(1)(4) >= 0
 ONOFF(3)(2)(1):  - 1200 X(3)(2)(1) + P(3)(2)(1) >= 0
 ONOFF2(3)(2)(1): 4000 X(3)(2)(1) - P(3)(2)(1) >= 0
 ONOFF(3)(2)(2):  - 1200 X(3)(2)(2) + P(3)(2)(2) >= 0
 ONOFF2(3)(2)(2): 4000 X(3)(2)(2) - P(3)(2)(2) >= 0
 ONOFF(3)(2)(3):  - 1200 X(3)(2)(3) + P(3)(2)(3) >= 0
 ONOFF2(3)(2)(3): 4000 X(3)(2)(3) - P(3)(2)(3) >= 0
 ONOFF(3)(2)(4):  - 1200 X(3)(2)(4) + P(3)(2)(4) >= 0
 ONOFF2(3)(2)(4): 4000 X(3)(2)(4) - P(3)(2)(4) >= 0
 ONOFF(4)(1)(1):  - 1800 X(4)(1)(1) + P(4)(1)(1) >= 0
 ONOFF2(4)(1)(1): 5000 X(4)(1)(1) - P(4)(1)(1) >= 0
 ONOFF(4)(1)(2):  - 1800 X(4)(1)(2) + P(4)(1)(2) >= 0
 ONOFF2(4)(1)(2): 5000 X(4)(1)(2) - P(4)(1)(2) >= 0
 ONOFF(4)(1)(3):  - 1800 X(4)(1)(3) + P(4)(1)(3) >= 0
 ONOFF2(4)(1)(3): 5000 X(4)(1)(3) - P(4)(1)(3) >= 0
 ONOFF(4)(1)(4):  - 1800 X(4)(1)(4) + P(4)(1)(4) >= 0
 ONOFF2(4)(1)(4): 5000 X(4)(1)(4) - P(4)(1)(4) >= 0
 ONOFF(4)(2)(1):  - 1800 X(4)(2)(1) + P(4)(2)(1) >= 0
 ONOFF2(4)(2)(1): 5000 X(4)(2)(1) - P(4)(2)(1) >= 0
 ONOFF(4)(2)(2):  - 1800 X(4)(2)(2) + P(4)(2)(2) >= 0
 ONOFF2(4)(2)(2): 5000 X(4)(2)(2) - P(4)(2)(2) >= 0
 ONOFF(4)(2)(3):  - 1800 X(4)(2)(3) + P(4)(2)(3) >= 0
 ONOFF2(4)(2)(3): 5000 X(4)(2)(3) - P(4)(2)(3) >= 0
 ONOFF(4)(2)(4):  - 1800 X(4)(2)(4) + P(4)(2)(4) >= 0
 ONOFF2(4)(2)(4): 5000 X(4)(2)(4) - P(4)(2)(4) >= 0
 DEM(1):          P(1)(1)(1) + P(1)(2)(1) + P(2)(1)(1) + P(2)(2)(1)
                  + P(3)(1)(1) + P(3)(2)(1) + P(4)(1)(1) + P(4)(2)(1) >= 5000
 DEM(2):          P(1)(1)(2) + P(1)(2)(2) + P(2)(1)(2) + P(2)(2)(2)
                  + P(3)(1)(2) + P(3)(2)(2) + P(4)(1)(2) + P(4)(2)(2) >= 8000
 DEM(3):          P(1)(1)(3) + P(1)(2)(3) + P(2)(1)(3) + P(2)(2)(3)
                  + P(3)(1)(3) + P(3)(2)(3) + P(4)(1)(3) + P(4)(2)(3) >= 12000
 DEM(4):          P(1)(1)(4) + P(1)(2)(4) + P(2)(1)(4) + P(2)(2)(4)
                  + P(3)(1)(4) + P(3)(2)(4) + P(4)(1)(4) + P(4)(2)(4) >= 15000
 RESQ(1)(1)(1):   - P(1)(1)(1) + Q(1)(1)(1) >= -750
 RESQ(1)(1)(2):   - P(1)(1)(2) + Q(1)(1)(2) >= -750
 RESQ(1)(1)(3):   - P(1)(1)(3) + Q(1)(1)(3) >= -750
 RESQ(1)(1)(4):   - P(1)(1)(4) + Q(1)(1)(4) >= -750
 RESQ(1)(2)(1):   - P(1)(2)(1) + Q(1)(2)(1) >= -750
 RESQ(1)(2)(2):   - P(1)(2)(2) + Q(1)(2)(2) >= -750
 RESQ(1)(2)(3):   - P(1)(2)(3) + Q(1)(2)(3) >= -750
 RESQ(1)(2)(4):   - P(1)(2)(4) + Q(1)(2)(4) >= -750
 RESQ(2)(1)(1):   - P(2)(1)(1) + Q(2)(1)(1) >= -1000
 RESQ(2)(1)(2):   - P(2)(1)(2) + Q(2)(1)(2) >= -1000
 RESQ(2)(1)(3):   - P(2)(1)(3) + Q(2)(1)(3) >= -1000
 RESQ(2)(1)(4):   - P(2)(1)(4) + Q(2)(1)(4) >= -1000
 RESQ(2)(2)(1):   - P(2)(2)(1) + Q(2)(2)(1) >= -1000
 RESQ(2)(2)(2):   - P(2)(2)(2) + Q(2)(2)(2) >= -1000
 RESQ(2)(2)(3):   - P(2)(2)(3) + Q(2)(2)(3) >= -1000
 RESQ(2)(2)(4):   - P(2)(2)(4) + Q(2)(2)(4) >= -1000
 RESQ(3)(1)(1):   - P(3)(1)(1) + Q(3)(1)(1) >= -1200
 RESQ(3)(1)(2):   - P(3)(1)(2) + Q(3)(1)(2) >= -1200
 RESQ(3)(1)(3):   - P(3)(1)(3) + Q(3)(1)(3) >= -1200
 RESQ(3)(1)(4):   - P(3)(1)(4) + Q(3)(1)(4) >= -1200
 RESQ(3)(2)(1):   - P(3)(2)(1) + Q(3)(2)(1) >= -1200
 RESQ(3)(2)(2):   - P(3)(2)(2) + Q(3)(2)(2) >= -1200
 RESQ(3)(2)(3):   - P(3)(2)(3) + Q(3)(2)(3) >= -1200
 RESQ(3)(2)(4):   - P(3)(2)(4) + Q(3)(2)(4) >= -1200
 RESQ(4)(1)(1):   - P(4)(1)(1) + Q(4)(1)(1) >= -1800
 RESQ(4)(1)(2):   - P(4)(1)(2) + Q(4)(1)(2) >= -1800
 RESQ(4)(1)(3):   - P(4)(1)(3) + Q(4)(1)(3) >= -1800
 RESQ(4)(1)(4):   - P(4)(1)(4) + Q(4)(1)(4) >= -1800
 RESQ(4)(2)(1):   - P(4)(2)(1) + Q(4)(2)(1) >= -1800
 RESQ(4)(2)(2):   - P(4)(2)(2) + Q(4)(2)(2) >= -1800
 RESQ(4)(2)(3):   - P(4)(2)(3) + Q(4)(2)(3) >= -1800
 RESQ(4)(2)(4):   - P(4)(2)(4) + Q(4)(2)(4) >= -1800
 LIG(1)(1)(1):    X(1)(1)(1) - X(1)(1)(2) + Z(1)(1)(2) >= 0
 LIG(1)(1)(2):    X(1)(1)(2) - X(1)(1)(3) + Z(1)(1)(3) >= 0
 LIG(1)(1)(3):    X(1)(1)(3) - X(1)(1)(4) + Z(1)(1)(4) >= 0
 LIG(1)(1)(4):    - X(1)(1)(1) + X(1)(1)(4) + Z(1)(1)(1) >= 0
 LIG(1)(2)(1):    X(1)(2)(1) - X(1)(2)(2) + Z(1)(2)(2) >= 0
 LIG(1)(2)(2):    X(1)(2)(2) - X(1)(2)(3) + Z(1)(2)(3) >= 0
 LIG(1)(2)(3):    X(1)(2)(3) - X(1)(2)(4) + Z(1)(2)(4) >= 0
 LIG(1)(2)(4):    - X(1)(2)(1) + X(1)(2)(4) + Z(1)(2)(1) >= 0
 LIG(2)(1)(1):    X(2)(1)(1) - X(2)(1)(2) + Z(2)(1)(2) >= 0
 LIG(2)(1)(2):    X(2)(1)(2) - X(2)(1)(3) + Z(2)(1)(3) >= 0
 LIG(2)(1)(3):    X(2)(1)(3) - X(2)(1)(4) + Z(2)(1)(4) >= 0
 LIG(2)(1)(4):    - X(2)(1)(1) + X(2)(1)(4) + Z(2)(1)(1) >= 0
 LIG(2)(2)(1):    X(2)(2)(1) - X(2)(2)(2) + Z(2)(2)(2) >= 0
 LIG(2)(2)(2):    X(2)(2)(2) - X(2)(2)(3) + Z(2)(2)(3) >= 0
 LIG(2)(2)(3):    X(2)(2)(3) - X(2)(2)(4) + Z(2)(2)(4) >= 0
 LIG(2)(2)(4):    - X(2)(2)(1) + X(2)(2)(4) + Z(2)(2)(1) >= 0
 LIG(3)(1)(1):    X(3)(1)(1) - X(3)(1)(2) + Z(3)(1)(2) >= 0
 LIG(3)(1)(2):    X(3)(1)(2) - X(3)(1)(3) + Z(3)(1)(3) >= 0
 LIG(3)(1)(3):    X(3)(1)(3) - X(3)(1)(4) + Z(3)(1)(4) >= 0
 LIG(3)(1)(4):    - X(3)(1)(1) + X(3)(1)(4) + Z(3)(1)(1) >= 0
 LIG(3)(2)(1):    X(3)(2)(1) - X(3)(2)(2) + Z(3)(2)(2) >= 0
 LIG(3)(2)(2):    X(3)(2)(2) - X(3)(2)(3) + Z(3)(2)(3) >= 0
 LIG(3)(2)(3):    X(3)(2)(3) - X(3)(2)(4) + Z(3)(2)(4) >= 0
 LIG(3)(2)(4):    - X(3)(2)(1) + X(3)(2)(4) + Z(3)(2)(1) >= 0
 LIG(4)(1)(1):    X(4)(1)(1) - X(4)(1)(2) + Z(4)(1)(2) >= 0
 LIG(4)(1)(2):    X(4)(1)(2) - X(4)(1)(3) + Z(4)(1)(3) >= 0
 LIG(4)(1)(3):    X(4)(1)(3) - X(4)(1)(4) + Z(4)(1)(4) >= 0
 LIG(4)(1)(4):    - X(4)(1)(1) + X(4)(1)(4) + Z(4)(1)(1) >= 0
 LIG(4)(2)(1):    X(4)(2)(1) - X(4)(2)(2) + Z(4)(2)(2) >= 0
 LIG(4)(2)(2):    X(4)(2)(2) - X(4)(2)(3) + Z(4)(2)(3) >= 0
 LIG(4)(2)(3):    X(4)(2)(3) - X(4)(2)(4) + Z(4)(2)(4) >= 0
 LIG(4)(2)(4):    - X(4)(2)(1) + X(4)(2)(4) + Z(4)(2)(1) >= 0
Bounds
 0 <= X(1)(1)(1) <= 1
 0 <= X(1)(1)(2) <= 1
 0 <= X(1)(1)(3) <= 1
 0 <= X(1)(1)(4) <= 1
 0 <= X(1)(2)(1) <= 1
 0 <= X(1)(2)(2) <= 1
 0 <= X(1)(2)(3) <= 1
 0 <= X(1)(2)(4) <= 1
 0 <= X(2)(1)(1) <= 1
 0 <= X(2)(1)(2) <= 1
 0 <= X(2)(1)(3) <= 1
 0 <= X(2)(1)(4) <= 1
 0 <= X(2)(2)(1) <= 1
 0 <= X(2)(2)(2) <= 1
 0 <= X(2)(2)(3) <= 1
 0 <= X(2)(2)(4) <= 1
 0 <= X(3)(1)(1) <= 1
 0 <= X(3)(1)(2) <= 1
 0 <= X(3)(1)(3) <= 1
 0 <= X(3)(1)(4) <= 1
 0 <= X(3)(2)(1) <= 1
 0 <= X(3)(2)(2) <= 1
 0 <= X(3)(2)(3) <= 1
 0 <= X(3)(2)(4) <= 1
 0 <= X(4)(1)(1) <= 1
 0 <= X(4)(1)(2) <= 1
 0 <= X(4)(1)(3) <= 1
 0 <= X(4)(1)(4) <= 1
 0 <= X(4)(2)(1) <= 1
 0 <= X(4)(2)(2) <= 1
 0 <= X(4)(2)(3) <= 1
 0 <= X(4)(2)(4) <= 1
 0 <= Z(1)(1)(1) <= 1
 0 <= Z(1)(1)(2) <= 1
 0 <= Z(1)(1)(3) <= 1
 0 <= Z(1)(1)(4) <= 1
 0 <= Z(1)(2)(1) <= 1
 0 <= Z(1)(2)(2) <= 1
 0 <= Z(1)(2)(3) <= 1
 0 <= Z(1)(2)(4) <= 1
 0 <= Z(2)(1)(1) <= 1
 0 <= Z(2)(1)(2) <= 1
 0 <= Z(2)(1)(3) <= 1
 0 <= Z(2)(1)(4) <= 1
 0 <= Z(2)(2)(1) <= 1
 0 <= Z(2)(2)(2) <= 1
 0 <= Z(2)(2)(3) <= 1
 0 <= Z(2)(2)(4) <= 1
 0 <= Z(3)(1)(1) <= 1
 0 <= Z(3)(1)(2) <= 1
 0 <= Z(3)(1)(3) <= 1
 0 <= Z(3)(1)(4) <= 1
 0 <= Z(3)(2)(1) <= 1
 0 <= Z(3)(2)(2) <= 1
 0 <= Z(3)(2)(3) <= 1
 0 <= Z(3)(2)(4) <= 1
 0 <= Z(4)(1)(1) <= 1
 0 <= Z(4)(1)(2) <= 1
 0 <= Z(4)(1)(3) <= 1
 0 <= Z(4)(1)(4) <= 1
 0 <= Z(4)(2)(1) <= 1
 0 <= Z(4)(2)(2) <= 1
 0 <= Z(4)(2)(3) <= 1
 0 <= Z(4)(2)(4) <= 1
Binaries
 X(1)(1)(1)  X(1)(1)(2)  X(1)(1)(3)  X(1)(1)(4)  X(1)(2)(1)  X(1)(2)(2) 
 X(1)(2)(3)  X(1)(2)(4)  X(2)(1)(1)  X(2)(1)(2)  X(2)(1)(3)  X(2)(1)(4) 
 X(2)(2)(1)  X(2)(2)(2)  X(2)(2)(3)  X(2)(2)(4)  X(3)(1)(1)  X(3)(1)(2) 
 X(3)(1)(3)  X(3)(1)(4)  X(3)(2)(1)  X(3)(2)(2)  X(3)(2)(3)  X(3)(2)(4) 
 X(4)(1)(1)  X(4)(1)(2)  X(4)(1)(3)  X(4)(1)(4)  X(4)(2)(1)  X(4)(2)(2) 
 X(4)(2)(3)  X(4)(2)(4)  Z(1)(1)(1)  Z(1)(1)(2)  Z(1)(1)(3)  Z(1)(1)(4) 
 Z(1)(2)(1)  Z(1)(2)(2)  Z(1)(2)(3)  Z(1)(2)(4)  Z(2)(1)(1)  Z(2)(1)(2) 
 Z(2)(1)(3)  Z(2)(1)(4)  Z(2)(2)(1)  Z(2)(2)(2)  Z(2)(2)(3)  Z(2)(2)(4) 
 Z(3)(1)(1)  Z(3)(1)(2)  Z(3)(1)(3)  Z(3)(1)(4)  Z(3)(2)(1)  Z(3)(2)(2) 
 Z(3)(2)(3)  Z(3)(2)(4)  Z(4)(1)(1)  Z(4)(1)(2)  Z(4)(1)(3)  Z(4)(1)(4) 
 Z(4)(2)(1)  Z(4)(2)(2)  Z(4)(2)(3)  Z(4)(2)(4) 
End
